&CONTROL
  prefix = 'si'
  calculation = 'scf'
  wf_collect = .true.
  outdir='./tmp'
  pseudo_dir='../pseudo'
/
&SYSTEM
  ibrav = 2
  celldm(1) = 10.264
  nat = 2
  ntyp = 1
  ecutwfc = 60.0 ! 40.0 => phonon will fail...
  !noncolin = .true.
  !lspinorb = .true.
/
&ELECTRONS
  conv_thr = 1.0d-15
  mixing_mode = 'plain'
  mixing_beta = 0.7
  diagonalization = 'david'
  diago_full_acc = .true.
/
&IONS
/
&CELL
press_conv_thr = 0.01
/
ATOMIC_SPECIES
  Si   28.085  Si_DOJO_PBEsol.upf
ATOMIC_POSITIONS crystal
Si  0.00000000  0.00000000  0.00000000
Si -0.25000000  0.75000000 -0.25000000
K_POINTS (automatic)
 8 8 8 0 0 0

