
begin projections
 Si:sp3
end projections
guiding_centres=true 

num_bands = 16
num_wann = 8


iprint = 2
dis_num_iter =  500
dis_win_min =  -100.000
dis_win_max =   17.200
dis_froz_min = -100.000
dis_froz_max  = 9.000     !four valence + the first two modes. 
num_iter  =   50
mp_grid : 4 4 4  

write_u_matrices = .true.
write_xyz = .true.

begin unit_cell_cart
bohr
-5.1320  0.0000  5.1320
 0.0000  5.1320  5.1320
-5.1320  5.1320  0.0000 
end unit_cell_cart

#restart = plot
BANDS_PLOT = TRUE
BANDS_PLOT_FORMAT = gnuplot
BANDS_NUM_POINTS = 100

BEGIN KPOINT_PATH
L 0.500 0.500 0.500  G 0.000 0.000 0.000
G 0.000 0.000 0.000  X 0.500 0.000 0.500
X 0.500 0.000 0.500  W 0.500 0.250 0.750
W 0.500 0.250 0.750  K 0.375 0.375 0.750
K 0.375 0.375 0.750  G 0.000 0.000 0.000
END KPOINT_PATH

begin atoms_frac
 Si    0.00000   0.00000   0.00000
 Si   -0.25000   0.75000  -0.25000
end atoms_frac

  
begin kpoints 
0.00000000  0.00000000  0.00000000
  0.00000000  0.00000000  0.25000000
  0.00000000  0.00000000  0.50000000
  0.00000000  0.00000000  0.75000000
  0.00000000  0.25000000  0.00000000
  0.00000000  0.25000000  0.25000000
  0.00000000  0.25000000  0.50000000
  0.00000000  0.25000000  0.75000000
  0.00000000  0.50000000  0.00000000
  0.00000000  0.50000000  0.25000000
  0.00000000  0.50000000  0.50000000
  0.00000000  0.50000000  0.75000000
  0.00000000  0.75000000  0.00000000
  0.00000000  0.75000000  0.25000000
  0.00000000  0.75000000  0.50000000
  0.00000000  0.75000000  0.75000000
  0.25000000  0.00000000  0.00000000
  0.25000000  0.00000000  0.25000000
  0.25000000  0.00000000  0.50000000
  0.25000000  0.00000000  0.75000000
  0.25000000  0.25000000  0.00000000
  0.25000000  0.25000000  0.25000000
  0.25000000  0.25000000  0.50000000
  0.25000000  0.25000000  0.75000000
  0.25000000  0.50000000  0.00000000
  0.25000000  0.50000000  0.25000000
  0.25000000  0.50000000  0.50000000
  0.25000000  0.50000000  0.75000000
  0.25000000  0.75000000  0.00000000
  0.25000000  0.75000000  0.25000000
  0.25000000  0.75000000  0.50000000
  0.25000000  0.75000000  0.75000000
  0.50000000  0.00000000  0.00000000
  0.50000000  0.00000000  0.25000000
  0.50000000  0.00000000  0.50000000
  0.50000000  0.00000000  0.75000000
  0.50000000  0.25000000  0.00000000
  0.50000000  0.25000000  0.25000000
  0.50000000  0.25000000  0.50000000
  0.50000000  0.25000000  0.75000000
  0.50000000  0.50000000  0.00000000
  0.50000000  0.50000000  0.25000000
  0.50000000  0.50000000  0.50000000
  0.50000000  0.50000000  0.75000000
  0.50000000  0.75000000  0.00000000
  0.50000000  0.75000000  0.25000000
  0.50000000  0.75000000  0.50000000
  0.50000000  0.75000000  0.75000000
  0.75000000  0.00000000  0.00000000
  0.75000000  0.00000000  0.25000000
  0.75000000  0.00000000  0.50000000
  0.75000000  0.00000000  0.75000000
  0.75000000  0.25000000  0.00000000
  0.75000000  0.25000000  0.25000000
  0.75000000  0.25000000  0.50000000
  0.75000000  0.25000000  0.75000000
  0.75000000  0.50000000  0.00000000
  0.75000000  0.50000000  0.25000000
  0.75000000  0.50000000  0.50000000
  0.75000000  0.50000000  0.75000000
  0.75000000  0.75000000  0.00000000
  0.75000000  0.75000000  0.25000000
  0.75000000  0.75000000  0.50000000
  0.75000000  0.75000000  0.75000000
end kpoints
