qe2pert
&qe2pert
  prefix='gaas'
  outdir='./tmp'
  phdir='../pw-ph-wann/phonon/save'
  nk1=4, nk2=4, nk3=4
  dft_band_min = 1
  dft_band_max = 24
  num_wann = 8
  lwannier = .true.
/
