&control
   calculation='scf',
   prefix='gaas' 
   pseudo_dir = '../pseudo'
   outdir='./tmp'
   tstress = .true.
/
&system
   ibrav=  2, 
   celldm(1) =  10.50
   nat=  2, 
   ntyp= 2,
   ecutwfc = 72.0,
/
&electrons
   mixing_beta     = 0.7
   conv_thr        = 1.0d-12
   diagonalization = 'david' 
   diago_full_acc  = .true. 
/
ATOMIC_SPECIES
 Ga  69.72   Ga.pz-hgh.UPF
 As  74.922  As.pz-hgh.UPF
ATOMIC_POSITIONS
 Ga 0.00000000 0.00000000 0.00000000
 As 0.25000000 0.25000000 0.25000000
K_POINTS {automatic}
 8 8 8 0 0 0
